
n_res = 4;
rcap = [38, 38, 178, 152];
rtype = [1, 1, 2, 2];
n_tasks = 100;
modes =  [{1, 2, 3}, {4, 5, 6}, {7, 8, 9}, {10, 11, 12}, {13, 14, 15}, {16, 17, 18}, {19, 20, 21}, {22, 23, 24}, {25, 26, 27}, {28, 29, 30}, {31, 32, 33}, {34, 35, 36}, {37, 38, 39}, {40, 41, 42}, {43, 44, 45}, {46, 47, 48}, {49, 50, 51}, {52, 53, 54}, {55, 56, 57}, {58, 59, 60}, {61, 62, 63}, {64, 65, 66}, {67, 68, 69}, {70, 71, 72}, {73, 74, 75}, {76, 77, 78}, {79, 80, 81}, {82, 83, 84}, {85, 86, 87}, {88, 89, 90}, {91, 92, 93}, {94, 95, 96}, {97, 98, 99}, {100, 101, 102}, {103, 104, 105}, {106, 107, 108}, {109, 110, 111}, {112, 113, 114}, {115, 116, 117}, {118, 119, 120}, {121, 122, 123}, {124, 125, 126}, {127, 128, 129}, {130, 131, 132}, {133, 134, 135}, {136, 137, 138}, {139, 140, 141}, {142, 143, 144}, {145, 146, 147}, {148, 149, 150}, {151, 152, 153}, {154, 155, 156}, {157, 158, 159}, {160, 161, 162}, {163, 164, 165}, {166, 167, 168}, {169, 170, 171}, {172, 173, 174}, {175, 176, 177}, {178, 179, 180}, {181, 182, 183}, {184, 185, 186}, {187, 188, 189}, {190, 191, 192}, {193, 194, 195}, {196, 197, 198}, {199, 200, 201}, {202, 203, 204}, {205, 206, 207}, {208, 209, 210}, {211, 212, 213}, {214, 215, 216}, {217, 218, 219}, {220, 221, 222}, {223, 224, 225}, {226, 227, 228}, {229, 230, 231}, {232, 233, 234}, {235, 236, 237}, {238, 239, 240}, {241, 242, 243}, {244, 245, 246}, {247, 248, 249}, {250, 251, 252}, {253, 254, 255}, {256, 257, 258}, {259, 260, 261}, {262, 263, 264}, {265, 266, 267}, {268, 269, 270}, {271, 272, 273}, {274, 275, 276}, {277, 278, 279}, {280, 281, 282}, {283, 284, 285}, {286, 287, 288}, {289, 290, 291}, {292, 293, 294}, {295, 296, 297}, {298, 299, 300}];
succ =  [{20, 17, 9, 7, 6}, {23, 20, 17, 6}, {25, 20, 17, 7}, {26, 24, 23, 20, 19, 17, 16}, {19, 17, 16, 9}, {30, 29, 27, 26, 25, 24, 16}, {30, 29, 27, 26, 24, 23, 16}, {9}, {39, 32, 31, 29, 28, 27, 26, 24, 21}, {39, 30, 29, 26, 17, 16}, {28, 24, 23, 21, 17}, {31, 28, 24, 23, 21, 20}, {39, 31, 30, 28, 27, 26}, {41, 36, 35, 34, 32, 31, 29, 28}, {33, 31, 30, 29, 27}, {40, 36, 35, 32, 31, 28}, {34, 33, 32, 31, 27}, {41, 40, 37, 36, 34, 28}, {36, 33, 31, 30, 29}, {36, 35, 33, 29}, {40, 38, 36, 30}, {40, 39, 35, 28}, {40, 39, 38, 37, 33}, {40, 35, 34, 33}, {41, 39, 37, 34}, {47, 45, 42, 40, 37, 36}, {45, 44, 40, 35}, {43, 38, 33}, {49, 47, 45, 44, 40, 37}, {49, 47, 41, 37}, {49, 48, 47, 46, 45, 44, 42}, {49, 44, 42, 37}, {51, 49, 48, 47, 46, 45, 44}, {49, 48, 47, 45, 44, 43}, {52, 49, 46, 38}, {57, 53, 52, 49, 48, 46, 44}, {60, 56, 54, 52, 51, 48, 43}, {66, 54, 53, 50, 48, 47, 42}, {55, 54, 52, 50, 49, 42}, {62, 60, 58, 56, 55, 54, 53, 52, 46}, {63, 62, 58, 57, 55, 45}, {63, 62, 60, 59, 58, 56, 51}, {66, 62, 53, 46}, {71, 70, 66, 60, 59, 58, 56, 54}, {60, 56, 54, 53, 52}, {75, 70, 63, 50}, {82, 71, 62, 60, 59, 57}, {83, 82, 73, 71, 67, 64, 62, 61, 55}, {82, 71, 70, 67, 66, 65, 64, 62, 60}, {82, 73, 71, 68, 65, 61, 59}, {73, 70, 68, 57}, {83, 73, 68, 66, 65, 64}, {80, 61, 59}, {80, 75, 73, 67, 61}, {80, 75, 74, 68, 65}, {73, 68, 65, 64}, {67, 65, 64, 61}, {83, 82, 67, 64}, {83, 67, 64}, {75, 73, 61}, {90, 87, 79, 78, 76, 74, 72, 69}, {100, 90, 89, 88, 80, 79, 78, 77, 76, 75, 74}, {100, 86, 85, 82, 80, 79, 78, 71}, {90, 87, 79, 76, 74, 69}, {90, 79, 78, 76, 69}, {90, 80, 79, 76, 69}, {90, 89, 88, 87, 86, 78, 72}, {90, 89, 88, 87, 72}, {100, 99, 89, 88, 86, 85, 84, 81, 77}, {90, 88, 86, 78, 74}, {89, 88, 77, 74}, {100, 99, 85, 84, 81, 77}, {98, 97, 96, 94, 89, 88, 85, 84}, {99, 97, 96, 94, 84, 81}, {98, 96, 95, 94, 85}, {99, 97, 96, 95, 94, 93, 91}, {97, 96, 95, 94, 92, 91}, {99, 98, 96, 94, 92, 91}, {97, 95, 94, 93, 92, 91}, {99, 96, 84}, {98, 95, 93, 92, 91}, {94, 93, 89, 88}, {94, 92, 88}, {95, 92, 91}, {93, 92, 91}, {93, 91}, {93, 91}, {91}, {91}, {91}, {}, {}, {}, {}, {}, {}, {}, {}, {}, {}];
n_opt = 300;
dur = [3, 4, 9, 1, 6, 6, 3, 4, 7, 3, 3, 6, 2, 6, 7, 3, 4, 8, 5, 7, 10, 4, 6, 10, 5, 5, 8, 1, 4, 5, 5, 6, 7, 2, 8, 9, 3, 4, 5, 2, 8, 10, 1, 2, 9, 4, 8, 10, 2, 3, 7, 2, 3, 5, 4, 5, 6, 2, 9, 10, 3, 4, 7, 1, 2, 4, 2, 5, 7, 2, 3, 7, 7, 9, 10, 5, 6, 8, 1, 2, 10, 4, 6, 9, 3, 3, 7, 1, 3, 4, 1, 7, 9, 4, 5, 5, 3, 3, 8, 2, 3, 4, 3, 6, 10, 3, 4, 8, 2, 4, 8, 1, 6, 7, 1, 4, 8, 5, 8, 9, 2, 7, 9, 3, 5, 10, 2, 6, 9, 3, 5, 6, 3, 5, 10, 6, 9, 10, 2, 4, 10, 5, 7, 9, 1, 2, 8, 2, 3, 10, 5, 9, 10, 1, 3, 9, 2, 5, 7, 7, 8, 10, 2, 4, 5, 2, 9, 10, 4, 5, 6, 1, 7, 10, 5, 7, 10, 3, 7, 10, 3, 8, 9, 3, 7, 8, 1, 5, 6, 2, 5, 8, 3, 7, 9, 1, 4, 10, 2, 4, 9, 1, 1, 2, 2, 7, 8, 6, 8, 10, 6, 6, 9, 2, 2, 5, 5, 8, 10, 1, 6, 7, 1, 4, 5, 2, 3, 7, 3, 8, 9, 3, 4, 8, 5, 6, 9, 2, 3, 4, 2, 3, 4, 1, 4, 10, 2, 3, 9, 7, 9, 10, 5, 10, 10, 3, 4, 8, 2, 3, 3, 1, 2, 5, 2, 3, 4, 3, 6, 7, 6, 7, 10, 1, 8, 10, 8, 8, 9, 1, 2, 3, 2, 6, 10, 3, 5, 7, 1, 1, 5, 3, 4, 7, 8, 9, 10, 5, 8, 10];
rreq = [|4, 4, 4, 1, 1, 1, 3, 3, 2, 2, 1, 1, 3, 3, 2, 3, 3, 3, 3, 3, 2, 4, 2, 2, 4, 4, 4, 5, 3, 3, 4, 4, 4, 5, 4, 4, 3, 2, 1, 3, 3, 1, 4, 3, 3, 4, 4, 3, 3, 2, 2, 4, 2, 1, 5, 4, 4, 3, 2, 2, 1, 1, 1, 4, 4, 4, 4, 3, 3, 1, 1, 1, 4, 3, 3, 3, 3, 3, 3, 3, 1, 1, 1, 1, 3, 3, 3, 5, 5, 5, 2, 2, 1, 3, 3, 2, 4, 4, 2, 1, 1, 1, 4, 3, 3, 4, 3, 2, 5, 4, 2, 4, 3, 1, 5, 4, 3, 3, 2, 1, 5, 2, 1, 5, 3, 3, 3, 3, 3, 4, 4, 4, 3, 2, 1, 3, 3, 1, 2, 2, 2, 3, 2, 2, 1, 1, 1, 5, 4, 4, 1, 1, 1, 1, 1, 1, 3, 3, 3, 2, 1, 1, 1, 1, 1, 4, 3, 3, 4, 4, 4, 4, 4, 3, 4, 4, 4, 5, 4, 4, 2, 1, 1, 2, 2, 1, 5, 3, 3, 1, 1, 1, 5, 5, 5, 3, 2, 2, 4, 4, 4, 4, 2, 1, 2, 2, 2, 2, 2, 2, 5, 4, 4, 2, 2, 2, 2, 2, 1, 5, 4, 2, 2, 2, 2, 2, 2, 2, 2, 2, 2, 4, 3, 3, 2, 2, 2, 2, 2, 2, 4, 4, 4, 4, 3, 3, 4, 3, 1, 3, 2, 2, 3, 3, 3, 2, 1, 1, 4, 2, 2, 3, 3, 2, 4, 4, 4, 4, 4, 4, 5, 3, 2, 3, 2, 1, 4, 3, 2, 4, 2, 2, 3, 2, 1, 3, 3, 3, 2, 1, 1, 5, 4, 4, 3, 2, 1, 2, 1, 1
 |2, 2, 2, 3, 2, 2, 4, 3, 3, 4, 4, 4, 2, 2, 2, 4, 3, 2, 2, 2, 2, 5, 3, 3, 2, 2, 2, 4, 4, 4, 5, 5, 5, 3, 2, 2, 4, 4, 4, 1, 1, 1, 5, 4, 3, 5, 2, 1, 5, 5, 5, 3, 3, 3, 4, 3, 2, 3, 3, 2, 5, 4, 3, 5, 5, 5, 4, 4, 4, 4, 4, 3, 3, 2, 2, 4, 4, 4, 3, 2, 1, 5, 4, 3, 2, 1, 1, 1, 1, 1, 3, 3, 3, 5, 4, 3, 5, 4, 2, 3, 2, 2, 3, 3, 3, 5, 3, 1, 3, 2, 2, 4, 3, 2, 3, 3, 3, 3, 2, 2, 5, 5, 5, 4, 4, 4, 5, 5, 5, 4, 4, 4, 5, 2, 2, 4, 3, 3, 2, 2, 2, 2, 2, 2, 3, 1, 1, 4, 3, 3, 4, 4, 4, 3, 3, 2, 4, 2, 2, 4, 4, 3, 3, 1, 1, 3, 3, 3, 4, 3, 3, 3, 2, 1, 3, 2, 2, 1, 1, 1, 4, 3, 3, 3, 2, 2, 5, 4, 3, 4, 3, 1, 3, 2, 2, 2, 1, 1, 2, 1, 1, 5, 4, 3, 1, 1, 1, 2, 2, 2, 5, 3, 2, 3, 3, 3, 1, 1, 1, 4, 2, 1, 4, 4, 4, 1, 1, 1, 2, 1, 1, 4, 3, 2, 5, 3, 3, 2, 2, 2, 4, 2, 2, 1, 1, 1, 3, 3, 3, 3, 3, 3, 1, 1, 1, 2, 2, 2, 2, 2, 2, 3, 3, 3, 4, 4, 4, 4, 4, 4, 3, 3, 3, 2, 2, 2, 3, 2, 1, 3, 1, 1, 3, 3, 3, 4, 2, 1, 3, 3, 1, 5, 4, 2, 4, 3, 2, 5, 4, 4
 |0, 2, 0, 5, 4, 0, 6, 4, 0, 7, 0, 0, 7, 6, 6, 6, 0, 0, 8, 0, 3, 8, 0, 2, 4, 0, 0, 0, 0, 0, 9, 7, 6, 7, 6, 0, 3, 0, 2, 0, 0, 0, 2, 2, 0, 0, 1, 0, 6, 0, 0, 6, 5, 4, 0, 0, 1, 7, 6, 6, 8, 6, 4, 9, 0, 0, 8, 4, 3, 0, 0, 0, 0, 3, 2, 7, 0, 4, 2, 1, 0, 3, 2, 0, 0, 6, 0, 8, 6, 3, 0, 0, 5, 8, 0, 8, 0, 7, 0, 0, 0, 0, 7, 0, 2, 7, 5, 4, 5, 4, 3, 5, 0, 0, 0, 4, 0, 8, 7, 5, 7, 0, 5, 0, 4, 0, 2, 1, 0, 0, 0, 0, 7, 0, 0, 0, 0, 0, 7, 5, 0, 0, 7, 0, 9, 7, 3, 3, 3, 2, 0, 9, 0, 0, 0, 5, 0, 7, 0, 5, 4, 2, 0, 0, 0, 0, 6, 3, 0, 0, 0, 0, 9, 8, 8, 0, 3, 0, 0, 0, 5, 0, 0, 9, 0, 0, 6, 4, 4, 0, 6, 0, 9, 0, 0, 8, 7, 0, 0, 0, 0, 0, 5, 0, 7, 6, 5, 0, 0, 0, 6, 0, 3, 0, 3, 0, 10, 0, 0, 10, 8, 0, 0, 5, 2, 0, 0, 0, 0, 0, 1, 6, 5, 4, 4, 0, 3, 0, 0, 0, 4, 4, 3, 0, 0, 7, 6, 5, 3, 8, 0, 4, 0, 6, 0, 0, 0, 0, 0, 7, 0, 0, 0, 0, 0, 0, 0, 9, 6, 0, 0, 0, 8, 0, 0, 0, 4, 0, 0, 10, 4, 0, 9, 0, 0, 3, 0, 1, 0, 4, 0, 0, 4, 1, 9, 7, 4, 4, 0, 0
 |10, 0, 8, 0, 0, 1, 0, 0, 5, 0, 4, 3, 0, 0, 0, 0, 1, 1, 0, 5, 0, 0, 3, 0, 0, 3, 2, 9, 9, 8, 0, 0, 0, 0, 0, 2, 0, 6, 0, 8, 6, 6, 0, 0, 1, 8, 0, 8, 0, 5, 4, 0, 0, 0, 9, 6, 0, 0, 0, 0, 0, 0, 0, 0, 5, 2, 0, 0, 0, 7, 6, 4, 5, 0, 0, 0, 8, 0, 0, 0, 3, 0, 0, 4, 10, 0, 7, 0, 0, 0, 7, 6, 0, 0, 4, 0, 6, 0, 1, 6, 3, 2, 0, 6, 0, 0, 0, 0, 0, 0, 0, 0, 3, 3, 3, 0, 3, 0, 0, 0, 0, 6, 0, 8, 0, 7, 0, 0, 7, 10, 7, 3, 0, 7, 5, 3, 3, 1, 0, 0, 2, 3, 0, 2, 0, 0, 0, 0, 0, 0, 7, 0, 3, 6, 5, 0, 3, 0, 2, 0, 0, 0, 4, 4, 3, 7, 0, 0, 7, 6, 5, 5, 0, 0, 0, 7, 0, 8, 6, 3, 0, 9, 8, 0, 6, 2, 0, 0, 0, 5, 0, 4, 0, 5, 1, 0, 0, 2, 2, 2, 1, 8, 0, 5, 0, 0, 0, 6, 4, 3, 0, 6, 0, 2, 0, 1, 0, 5, 4, 0, 0, 1, 9, 0, 0, 6, 3, 1, 9, 6, 0, 0, 0, 0, 0, 6, 0, 9, 4, 3, 0, 0, 0, 9, 5, 0, 0, 0, 0, 0, 9, 0, 10, 0, 8, 5, 4, 2, 8, 0, 4, 9, 6, 6, 4, 3, 2, 0, 0, 2, 5, 3, 0, 7, 4, 2, 0, 2, 2, 0, 0, 4, 0, 2, 2, 0, 2, 0, 7, 0, 7, 6, 0, 0, 0, 0, 0, 0, 3, 2|];